NAME : X-n209-k16
COMMENT : "Generated by Uchoa, Pecin, Pessoa, Poggi, Subramanian, and Vidal (2013)"
TYPE : CVRP
DIMENSION : 209
EDGE_WEIGHT_TYPE : EUC_2D
EDGE_WEIGHT_FORMAT : 
CAPACITY : 101
DISTANCE : 1.79769e+308
SERVICE_TIME : 0
NODE_COORD_SECTION
1 0 0
2 487 949
3 492 770
4 150 556
5 130 719
6 962 393
7 54 890
8 861 705
9 338 631
10 119 741
11 48 296
12 982 827
13 18 954
14 558 698
15 857 337
16 963 72
17 218 46
18 705 484
19 315 3
20 331 358
21 688 156
22 314 338
23 214 428
24 193 866
25 381 924
26 968 10
27 797 382
28 733 544
29 956 878
30 576 270
31 257 778
32 713 605
33 270 940
34 880 401
35 245 168
36 973 29
37 888 919
38 943 703
39 364 248
40 932 60
41 575 18
42 663 990
43 667 351
44 85 708
45 801 330
46 261 91
47 163 953
48 509 249
49 237 336
50 791 356
51 314 168
52 356 726
53 260 412
54 630 144
55 534 255
56 356 444
57 448 320
58 987 333
59 691 109
60 319 476
61 83 716
62 395 818
63 605 769
64 633 162
65 651 644
66 221 4
67 551 912
68 762 604
69 337 41
70 156 318
71 756 357
72 749 173
73 535 235
74 719 700
75 900 564
76 717 4
77 337 441
78 759 103
79 615 132
80 365 498
81 42 268
82 952 2
83 989 303
84 471 821
85 650 215
86 302 881
87 61 459
88 391 405
89 364 170
90 643 744
91 324 620
92 559 449
93 92 914
94 133 607
95 223 949
96 988 415
97 943 616
98 764 6
99 659 250
100 766 532
101 730 338
102 850 489
103 481 467
104 564 296
105 469 531
106 538 121
107 997 183
108 127 966
109 880 538
110 300 985
111 462 125
112 781 68
113 884 92
114 438 673
115 591 658
116 928 894
117 107 816
118 581 799
119 46 288
120 548 0
121 379 725
122 186 490
123 947 161
124 702 712
125 230 722
126 40 891
127 362 568
128 26 614
129 396 104
130 756 658
131 818 433
132 236 62
133 314 56
134 276 466
135 789 828
136 626 677
137 626 156
138 369 506
139 207 461
140 566 842
141 676 871
142 135 983
143 956 181
144 5 209
145 10 57
146 499 617
147 369 482
148 975 194
149 882 465
150 716 147
151 740 993
152 77 480
153 742 233
154 869 824
155 809 987
156 999 514
157 748 391
158 366 917
159 272 875
160 0 9
161 260 359
162 449 208
163 278 711
164 422 445
165 341 448
166 683 498
167 930 690
168 184 567
169 257 360
170 464 101
171 783 645
172 282 884
173 978 688
174 514 349
175 343 552
176 290 171
177 675 414
178 386 86
179 575 26
180 863 973
181 223 412
182 958 176
183 391 824
184 228 93
185 704 946
186 938 995
187 159 343
188 698 106
189 896 169
190 361 937
191 201 120
192 158 852
193 786 630
194 91 909
195 291 333
196 575 931
197 60 763
198 321 837
199 154 302
200 490 215
201 612 394
202 70 159
203 972 987
204 527 340
205 34 241
206 688 334
207 878 485
208 885 205
209 124 413
PICKUP_AND_DELIVERY_SECTION
1 0 0 0 0 0 0
2 0 0 0 0 0 7
3 0 0 0 0 0 6
4 0 0 0 0 0 7
5 0 0 0 0 0 8
6 0 0 0 0 0 10
7 0 0 0 0 0 7
8 0 0 0 0 0 7
9 0 0 0 0 0 10
10 0 0 0 0 0 8
11 0 0 0 0 5 0
12 0 0 0 0 0 6
13 0 0 0 0 0 5
14 0 0 0 0 0 6
15 0 0 0 0 0 5
16 0 0 0 0 0 8
17 0 0 0 0 0 5
18 0 0 0 0 0 8
19 0 0 0 0 0 6
20 0 0 0 0 0 6
21 0 0 0 0 7 0
22 0 0 0 0 0 5
23 0 0 0 0 0 9
24 0 0 0 0 0 10
25 0 0 0 0 0 6
26 0 0 0 0 0 6
27 0 0 0 0 0 6
28 0 0 0 0 0 7
29 0 0 0 0 0 8
30 0 0 0 0 0 9
31 0 0 0 0 7 0
32 0 0 0 0 0 6
33 0 0 0 0 0 6
34 0 0 0 0 0 10
35 0 0 0 0 0 5
36 0 0 0 0 0 5
37 0 0 0 0 0 8
38 0 0 0 0 0 10
39 0 0 0 0 0 9
40 0 0 0 0 0 9
41 0 0 0 0 6 0
42 0 0 0 0 0 7
43 0 0 0 0 0 9
44 0 0 0 0 0 9
45 0 0 0 0 0 10
46 0 0 0 0 0 9
47 0 0 0 0 0 10
48 0 0 0 0 0 10
49 0 0 0 0 0 8
50 0 0 0 0 0 7
51 0 0 0 0 10 0
52 0 0 0 0 0 5
53 0 0 0 0 0 9
54 0 0 0 0 0 8
55 0 0 0 0 0 7
56 0 0 0 0 0 5
57 0 0 0 0 0 9
58 0 0 0 0 0 10
59 0 0 0 0 0 6
60 0 0 0 0 0 9
61 0 0 0 0 6 0
62 0 0 0 0 0 5
63 0 0 0 0 0 8
64 0 0 0 0 0 8
65 0 0 0 0 0 6
66 0 0 0 0 0 8
67 0 0 0 0 0 8
68 0 0 0 0 0 6
69 0 0 0 0 0 6
70 0 0 0 0 0 5
71 0 0 0 0 10 0
72 0 0 0 0 0 8
73 0 0 0 0 0 6
74 0 0 0 0 0 9
75 0 0 0 0 0 6
76 0 0 0 0 0 8
77 0 0 0 0 0 10
78 0 0 0 0 0 7
79 0 0 0 0 0 9
80 0 0 0 0 0 7
81 0 0 0 0 10 0
82 0 0 0 0 0 6
83 0 0 0 0 0 10
84 0 0 0 0 0 6
85 0 0 0 0 0 8
86 0 0 0 0 0 6
87 0 0 0 0 0 8
88 0 0 0 0 0 5
89 0 0 0 0 0 5
90 0 0 0 0 0 7
91 0 0 0 0 10 0
92 0 0 0 0 0 5
93 0 0 0 0 0 7
94 0 0 0 0 0 5
95 0 0 0 0 0 10
96 0 0 0 0 0 9
97 0 0 0 0 0 6
98 0 0 0 0 0 6
99 0 0 0 0 0 9
100 0 0 0 0 0 10
101 0 0 0 0 8 0
102 0 0 0 0 0 9
103 0 0 0 0 0 6
104 0 0 0 0 0 8
105 0 0 0 0 0 5
106 0 0 0 0 0 6
107 0 0 0 0 0 7
108 0 0 0 0 0 10
109 0 0 0 0 0 9
110 0 0 0 0 0 7
111 0 0 0 0 9 0
112 0 0 0 0 0 7
113 0 0 0 0 0 10
114 0 0 0 0 0 9
115 0 0 0 0 0 8
116 0 0 0 0 0 6
117 0 0 0 0 0 5
118 0 0 0 0 0 8
119 0 0 0 0 0 7
120 0 0 0 0 0 7
121 0 0 0 0 8 0
122 0 0 0 0 0 7
123 0 0 0 0 0 5
124 0 0 0 0 0 7
125 0 0 0 0 0 5
126 0 0 0 0 0 5
127 0 0 0 0 0 7
128 0 0 0 0 0 7
129 0 0 0 0 0 7
130 0 0 0 0 0 7
131 0 0 0 0 5 0
132 0 0 0 0 0 6
133 0 0 0 0 0 7
134 0 0 0 0 0 5
135 0 0 0 0 0 9
136 0 0 0 0 0 5
137 0 0 0 0 0 8
138 0 0 0 0 0 9
139 0 0 0 0 0 10
140 0 0 0 0 0 8
141 0 0 0 0 8 0
142 0 0 0 0 0 10
143 0 0 0 0 0 6
144 0 0 0 0 0 9
145 0 0 0 0 0 9
146 0 0 0 0 0 10
147 0 0 0 0 0 5
148 0 0 0 0 0 8
149 0 0 0 0 0 5
150 0 0 0 0 0 9
151 0 0 0 0 5 0
152 0 0 0 0 0 8
153 0 0 0 0 0 9
154 0 0 0 0 0 10
155 0 0 0 0 0 7
156 0 0 0 0 0 8
157 0 0 0 0 0 10
158 0 0 0 0 0 6
159 0 0 0 0 0 8
160 0 0 0 0 0 9
161 0 0 0 0 5 0
162 0 0 0 0 0 6
163 0 0 0 0 0 7
164 0 0 0 0 0 5
165 0 0 0 0 0 9
166 0 0 0 0 0 6
167 0 0 0 0 0 8
168 0 0 0 0 0 10
169 0 0 0 0 0 9
170 0 0 0 0 0 5
171 0 0 0 0 6 0
172 0 0 0 0 0 9
173 0 0 0 0 0 5
174 0 0 0 0 0 7
175 0 0 0 0 0 6
176 0 0 0 0 0 8
177 0 0 0 0 0 10
178 0 0 0 0 0 7
179 0 0 0 0 0 8
180 0 0 0 0 0 9
181 0 0 0 0 7 0
182 0 0 0 0 0 10
183 0 0 0 0 0 9
184 0 0 0 0 0 6
185 0 0 0 0 0 9
186 0 0 0 0 0 7
187 0 0 0 0 0 7
188 0 0 0 0 0 10
189 0 0 0 0 0 5
190 0 0 0 0 0 5
191 0 0 0 0 6 0
192 0 0 0 0 0 9
193 0 0 0 0 0 9
194 0 0 0 0 0 6
195 0 0 0 0 0 6
196 0 0 0 0 0 8
197 0 0 0 0 0 7
198 0 0 0 0 0 9
199 0 0 0 0 0 10
200 0 0 0 0 0 6
201 0 0 0 0 6 0
202 0 0 0 0 0 10
203 0 0 0 0 0 5
204 0 0 0 0 0 8
205 0 0 0 0 0 7
206 0 0 0 0 0 5
207 0 0 0 0 0 10
208 0 0 0 0 0 8
209 0 0 0 0 0 10
